data/solutions/recovery/degenerate/intermediate/binding/degenerate_intermediate_instance23/22.sol
Elapsed time: 0.05
Upper bound: 239016050.0
Planning weighted value: 8.99993587012e+11
C[0]=239016050.0
C[1]=238953010.0
C[2]=237939664.0
C[3]=234975082.0
C[4]=227446291.0
C[5]=226840325.0
C[6]=223133866.0
C[7]=220428501.0
C[8]=212023626.0
C[9]=211412645.0
C[10]=210236840.0
C[11]=0.0
y[0]=2
y[1]=6
y[2]=5
y[3]=8
y[4]=1
y[5]=10
y[6]=0
y[7]=3
y[8]=2
y[9]=4
y[10]=2
y[11]=0
y[12]=5
y[13]=1
y[14]=5
y[15]=1
y[16]=5
y[17]=1
y[18]=10
y[19]=1
y[20]=3
y[21]=1
y[22]=5
y[23]=2
y[24]=0
y[25]=5
y[26]=0
y[27]=5
y[28]=3
y[29]=0
y[30]=8
y[31]=10
y[32]=10
y[33]=2
y[34]=4
y[35]=3
y[36]=0
y[37]=8
y[38]=7
y[39]=2
y[40]=4
y[41]=2
y[42]=8
y[43]=10
y[44]=2
y[45]=9
y[46]=2
y[47]=7
y[48]=6
y[49]=0
y[50]=6
y[51]=4
y[52]=4
y[53]=9
y[54]=8
y[55]=6
y[56]=9
y[57]=3
y[58]=6
y[59]=8
y[60]=9
y[61]=6
y[62]=7
y[63]=7
y[64]=4
y[65]=7
y[66]=6
y[67]=1
y[68]=9
y[69]=7
y[70]=4
y[71]=2
y[72]=10
y[73]=1
y[74]=6
y[75]=2
y[76]=4
y[77]=5
