data/solutions/recovery/degenerate/intermediate/binding/degenerate_intermediate_instance23/22.log

Log started (V12.6.3.0) Sun Apr 22 12:29:27 2018

New value for default parallel thread count: 1

Problem '/tmp/tmpXmEMPp.pyomo.lp' read.
Read time = 0.02 sec. (0.85 ticks)

Problem name         : /tmp/tmpXmEMPp.pyomo.lp
Objective sense      : Minimize
Variables            :     950  [Nneg: 1,  Binary: 936,  General Integer: 13]
Objective nonzeros   :       1
Linear constraints   :     182  [Less: 90,  Equal: 92]
  Nonzeros           :   61117
  RHS nonzeros       :      79

Variables            : Min LB: 0.000000         Max UB: 1.000000       
Objective nonzeros   : Min   : 1.000000         Max   : 1.000000       
Linear constraints   :
  Nonzeros           : Min   : 1.000000         Max   : 6.145599e+07   
  RHS nonzeros       : Min   : 1.000000         Max   : 1.000000       
Tried aggregator 1 time.
MIP Presolve eliminated 151 rows and 839 columns.
Reduced MIP has 31 rows, 111 columns, and 231 nonzeros.
Reduced MIP has 99 binaries, 12 generals, 0 SOSs, and 0 indicators.
Presolve time = 0.00 sec. (3.37 ticks)
Found incumbent of value 5.4057505e+08 after 0.00 sec. (4.87 ticks)
Probing time = 0.00 sec. (0.32 ticks)
Tried aggregator 1 time.
Reduced MIP has 31 rows, 111 columns, and 231 nonzeros.
Reduced MIP has 99 binaries, 12 generals, 0 SOSs, and 0 indicators.
Presolve time = 0.00 sec. (0.18 ticks)
Probing time = 0.00 sec. (0.32 ticks)
Clique table members: 9.
MIP emphasis: balance optimality and feasibility.
MIP search method: dynamic search.
Parallel mode: none, using 1 thread.
Root relaxation solution time = 0.00 sec. (0.19 ticks)

        Nodes                                         Cuts/
   Node  Left     Objective  IInf  Best Integer    Best Bound    ItCnt     Gap

*     0+    0                       5.40575e+08   2.34975e+08            56.53%
      0     0   2.34975e+08    13   5.40575e+08   2.34975e+08       44   56.53%
      0     0   2.34975e+08    13   5.40575e+08      Fract: 8       77   56.53%
      0     0   2.34975e+08    10   5.40575e+08      Fract: 5      102   56.53%
*     0+    0                       2.70325e+08   2.34975e+08            13.08%
*     0+    0                       2.54069e+08   2.34975e+08             7.52%
*     0+    0                       2.43223e+08   2.34975e+08             3.39%

Repeating presolve.
Tried aggregator 1 time.
MIP Presolve eliminated 2 rows and 49 columns.
Reduced MIP has 29 rows, 62 columns, and 132 nonzeros.
Reduced MIP has 51 binaries, 11 generals, 0 SOSs, and 0 indicators.
Presolve time = 0.00 sec. (0.10 ticks)
Probing fixed 0 vars, tightened 1 bounds.
Probing time = 0.00 sec. (0.07 ticks)
Tried aggregator 1 time.
Reduced MIP has 29 rows, 62 columns, and 132 nonzeros.
Reduced MIP has 51 binaries, 11 generals, 0 SOSs, and 0 indicators.
Presolve time = 0.00 sec. (0.09 ticks)
Represolve time = 0.00 sec. (0.41 ticks)
Probing time = 0.00 sec. (0.07 ticks)
Clique table members: 28.
MIP emphasis: balance optimality and feasibility.
MIP search method: dynamic search.
Parallel mode: none, using 1 thread.
Root relaxation solution time = 0.00 sec. (0.12 ticks)

        Nodes                                         Cuts/
   Node  Left     Objective  IInf  Best Integer    Best Bound    ItCnt     Gap

*     0+    0                       2.43223e+08   2.34975e+08             3.39%
      0     0   2.35805e+08    17   2.43223e+08   2.35805e+08      146    3.05%
      0     0   2.36023e+08    17   2.43223e+08       Cuts: 7      169    2.96%
*     0+    0                       2.41961e+08   2.36023e+08             2.45%
      0     2   2.36023e+08    12   2.41961e+08   2.36023e+08      170    2.45%
Elapsed time = 0.02 sec. (11.82 ticks, tree = 0.01 MB, solutions = 5)
*     9     4      integral     0   2.41106e+08   2.39016e+08      211    0.87%
*    17     5      integral     0   2.41068e+08   2.39016e+08      232    0.85%
*    20+    5                       2.41058e+08   2.39016e+08             0.85%
*    30+   12                       2.40095e+08   2.39016e+08             0.45%
*    40+    1                       2.39016e+08   2.39016e+08            -0.00%

Clique cuts applied:  1
Cover cuts applied:  5
Implied bound cuts applied:  2
Gomory fractional cuts applied:  1

Root node processing (before b&c):
  Real time             =    0.02 sec. (11.90 ticks)
Sequential b&c:
  Real time             =    0.00 sec. (1.22 ticks)
                          ------------
Total (root+branch&cut) =    0.02 sec. (13.12 ticks)

Solution pool: 10 solutions saved.

MIP - Integer optimal solution:  Objective =  2.3901605000e+08
Solution time =    0.02 sec.  Iterations = 304  Nodes = 40
Deterministic time = 13.12 ticks  (725.86 ticks/sec)


Incumbent solution written to file '/tmp/tmpa5_qTV.cplex.sol'.
